75
2 1 356
3 1 340
3 2 981
4 1 555
4 2 113
4 3 150
5 1 533
5 2 432
5 3 8
5 4 80
6 1 557
6 2 131
6 3 352
6 4 181
6 5 373
7 1 491
7 2 935
7 3 568
7 4 283
7 5 254
7 6 467
8 1 284
8 2 864
8 3 792
8 4 816
8 5 254
8 6 22
8 7 921
9 1 539
9 2 879
9 3 440
9 4 486
9 5 468
9 6 99
9 7 298
9 8 666
10 1 343
10 2 990
10 3 392
10 4 191
10 5 761
10 6 203
10 7 32
10 8 900
10 9 931
11 1 828
11 2 345
11 3 354
11 4 1
11 5 474
11 6 873
11 7 416
11 8 946
11 9 664
11 10 573
12 1 21
12 2 291
12 3 828
12 4 629
12 5 550
12 6 150
12 7 487
12 8 667
12 9 520
12 10 358
12 11 429
13 1 291
13 2 513
13 3 679
13 4 947
13 5 42
13 6 554
13 7 359
13 8 459
13 9 162
13 10 367
13 11 521
13 12 77
14 1 807
14 2 200
14 3 156
14 4 928
14 5 573
14 6 173
14 7 716
14 8 315
14 9 467
14 10 323
14 11 563
14 12 16
14 13 708
15 1 799
15 2 777
15 3 295
15 4 980
15 5 898
15 6 72
15 7 448
15 8 19
15 9 878
15 10 836
15 11 931
15 12 663
15 13 743
15 14 539
16 1 412
16 2 743
16 3 439
16 4 13
16 5 288
16 6 443
16 7 160
16 8 360
16 9 505
16 10 12
16 11 689
16 12 501
16 13 732
16 14 953
16 15 989
17 1 601
17 2 215
17 3 67
17 4 460
17 5 887
17 6 871
17 7 985
17 8 572
17 9 616
17 10 443
17 11 63
17 12 812
17 13 182
17 14 778
17 15 776
17 16 124
18 1 631
18 2 553
18 3 977
18 4 302
18 5 81
18 6 1000
18 7 660
18 8 16
18 9 798
18 10 463
18 11 109
18 12 409
18 13 943
18 14 848
18 15 548
18 16 471
18 17 227
19 1 270
19 2 686
19 3 616
19 4 996
19 5 485
19 6 774
19 7 165
19 8 488
19 9 906
19 10 60
19 11 663
19 12 265
19 13 281
19 14 773
19 15 242
19 16 87
19 17 336
19 18 3
20 1 447
20 2 715
20 3 968
20 4 119
20 5 238
20 6 412
20 7 784
20 8 601
20 9 92
20 10 130
20 11 72
20 12 403
20 13 413
20 14 655
20 15 501
20 16 248
20 17 674
20 18 200
20 19 135
21 1 460
21 2 999
21 3 205
21 4 563
21 5 234
21 6 110
21 7 346
21 8 219
21 9 449
21 10 850
21 11 13
21 12 206
21 13 431
21 14 701
21 15 751
21 16 193
21 17 269
21 18 9
21 19 430
21 20 196
22 1 579
22 2 843
22 3 130
22 4 314
22 5 839
22 6 684
22 7 19
22 8 735
22 9 670
22 10 392
22 11 708
22 12 582
22 13 709
22 14 128
22 15 840
22 16 403
22 17 925
22 18 191
22 19 933
22 20 390
22 21 532
23 1 940
23 2 704
23 3 629
23 4 870
23 5 261
23 6 403
23 7 952
23 8 873
23 9 264
23 10 901
23 11 207
23 12 19
23 13 143
23 14 522
23 15 18
23 16 876
23 17 408
23 18 906
23 19 338
23 20 638
23 21 912
23 22 370
24 1 378
24 2 267
24 3 372
24 4 550
24 5 713
24 6 123
24 7 338
24 8 308
24 9 646
24 10 218
24 11 776
24 12 169
24 13 129
24 14 463
24 15 724
24 16 793
24 17 831
24 18 545
24 19 712
24 20 222
24 21 141
24 22 308
24 23 882
25 1 925
25 2 197
25 3 765
25 4 998
25 5 883
25 6 246
25 7 133
25 8 792
25 9 213
25 10 900
25 11 495
25 12 342
25 13 107
25 14 108
25 15 1000
25 16 406
25 17 61
25 18 916
25 19 697
25 20 924
25 21 670
25 22 313
25 23 413
25 24 117
26 1 482
26 2 756
26 3 276
26 4 876
26 5 673
26 6 162
26 7 781
26 8 387
26 9 533
26 10 459
26 11 522
26 12 180
26 13 33
26 14 996
26 15 965
26 16 39
26 17 968
26 18 378
26 19 900
26 20 478
26 21 431
26 22 561
26 23 436
26 24 704
26 25 621
27 1 244
27 2 689
27 3 285
27 4 244
27 5 905
27 6 520
27 7 932
27 8 5
27 9 21
27 10 969
27 11 118
27 12 947
27 13 309
27 14 250
27 15 457
27 16 642
27 17 41
27 18 451
27 19 34
27 20 485
27 21 756
27 22 305
27 23 136
27 24 603
27 25 932
27 26 662
28 1 73
28 2 118
28 3 435
28 4 556
28 5 28
28 6 784
28 7 819
28 8 972
28 9 122
28 10 242
28 11 776
28 12 709
28 13 151
28 14 397
28 15 324
28 16 969
28 17 675
28 18 680
28 19 528
28 20 535
28 21 393
28 22 184
28 23 840
28 24 687
28 25 18
28 26 944
28 27 361
29 1 213
29 2 74
29 3 855
29 4 595
29 5 174
29 6 313
29 7 977
29 8 516
29 9 260
29 10 689
29 11 252
29 12 4
29 13 914
29 14 95
29 15 857
29 16 980
29 17 560
29 18 286
29 19 728
29 20 796
29 21 593
29 22 685
29 23 982
29 24 701
29 25 996
29 26 25
29 27 257
29 28 443
30 1 715
30 2 2
30 3 223
30 4 337
30 5 175
30 6 389
30 7 759
30 8 353
30 9 562
30 10 299
30 11 556
30 12 41
30 13 750
30 14 548
30 15 153
30 16 368
30 17 6
30 18 293
30 19 655
30 20 777
30 21 843
30 22 399
30 23 632
30 24 33
30 25 665
30 26 223
30 27 971
30 28 680
30 29 64
31 1 752
31 2 658
31 3 161
31 4 913
31 5 300
31 6 774
31 7 940
31 8 628
31 9 183
31 10 182
31 11 169
31 12 227
31 13 86
31 14 674
31 15 732
31 16 67
31 17 46
31 18 584
31 19 720
31 20 390
31 21 262
31 22 107
31 23 672
31 24 47
31 25 145
31 26 841
31 27 126
31 28 43
31 29 329
31 30 303
32 1 314
32 2 771
32 3 566
32 4 413
32 5 56
32 6 74
32 7 699
32 8 221
32 9 180
32 10 494
32 11 167
32 12 352
32 13 20
32 14 368
32 15 709
32 16 955
32 17 825
32 18 619
32 19 235
32 20 133
32 21 136
32 22 395
32 23 38
32 24 120
32 25 440
32 26 910
32 27 795
32 28 713
32 29 691
32 30 150
32 31 43
33 1 702
33 2 484
33 3 284
33 4 84
33 5 308
33 6 978
33 7 940
33 8 492
33 9 886
33 10 857
33 11 711
33 12 681
33 13 390
33 14 922
33 15 517
33 16 217
33 17 357
33 18 105
33 19 713
33 20 807
33 21 415
33 22 994
33 23 62
33 24 179
33 25 569
33 26 165
33 27 955
33 28 270
33 29 765
33 30 905
33 31 511
33 32 432
34 1 492
34 2 135
34 3 432
34 4 583
34 5 419
34 6 589
34 7 738
34 8 507
34 9 329
34 10 591
34 11 767
34 12 736
34 13 843
34 14 967
34 15 73
34 16 705
34 17 704
34 18 932
34 19 87
34 20 130
34 21 603
34 22 2
34 23 681
34 24 793
34 25 827
34 26 261
34 27 14
34 28 173
34 29 205
34 30 534
34 31 279
34 32 622
34 33 129
35 1 302
35 2 244
35 3 28
35 4 647
35 5 403
35 6 703
35 7 143
35 8 870
35 9 854
35 10 225
35 11 34
35 12 211
35 13 354
35 14 826
35 15 340
35 16 215
35 17 276
35 18 438
35 19 276
35 20 958
35 21 233
35 22 319
35 23 575
35 24 297
35 25 512
35 26 766
35 27 819
35 28 460
35 29 964
35 30 766
35 31 834
35 32 732
35 33 147
35 34 471
36 1 106
36 2 247
36 3 807
36 4 616
36 5 396
36 6 126
36 7 998
36 8 261
36 9 10
36 10 484
36 11 413
36 12 494
36 13 400
36 14 41
36 15 747
36 16 958
36 17 50
36 18 360
36 19 152
36 20 353
36 21 831
36 22 943
36 23 100
36 24 266
36 25 266
36 26 711
36 27 232
36 28 978
36 29 408
36 30 613
36 31 986
36 32 127
36 33 253
36 34 357
36 35 103
37 1 332
37 2 893
37 3 542
37 4 291
37 5 190
37 6 856
37 7 667
37 8 647
37 9 252
37 10 299
37 11 790
37 12 628
37 13 864
37 14 30
37 15 841
37 16 650
37 17 999
37 18 516
37 19 821
37 20 636
37 21 473
37 22 349
37 23 425
37 24 59
37 25 145
37 26 840
37 27 809
37 28 324
37 29 13
37 30 688
37 31 535
37 32 530
37 33 312
37 34 923
37 35 920
37 36 945
38 1 1
38 2 555
38 3 316
38 4 755
38 5 266
38 6 621
38 7 61
38 8 901
38 9 924
38 10 586
38 11 114
38 12 75
38 13 846
38 14 261
38 15 612
38 16 189
38 17 786
38 18 708
38 19 879
38 20 882
38 21 247
38 22 810
38 23 614
38 24 884
38 25 251
38 26 447
38 27 283
38 28 302
38 29 155
38 30 468
38 31 949
38 32 148
38 33 886
38 34 911
38 35 67
38 36 666
38 37 220
39 1 151
39 2 976
39 3 285
39 4 998
39 5 923
39 6 106
39 7 263
39 8 385
39 9 405
39 10 150
39 11 324
39 12 575
39 13 819
39 14 700
39 15 881
39 16 556
39 17 216
39 18 111
39 19 636
39 20 817
39 21 408
39 22 585
39 23 634
39 24 128
39 25 232
39 26 743
39 27 95
39 28 771
39 29 582
39 30 170
39 31 570
39 32 850
39 33 905
39 34 709
39 35 265
39 36 559
39 37 103
39 38 490
40 1 567
40 2 541
40 3 30
40 4 956
40 5 125
40 6 706
40 7 30
40 8 392
40 9 15
40 10 156
40 11 201
40 12 699
40 13 834
40 14 68
40 15 327
40 16 435
40 17 778
40 18 697
40 19 678
40 20 363
40 21 20
40 22 850
40 23 112
40 24 14
40 25 952
40 26 473
40 27 164
40 28 18
40 29 119
40 30 231
40 31 82
40 32 212
40 33 895
40 34 204
40 35 984
40 36 769
40 37 234
40 38 81
40 39 586
41 1 867
41 2 49
41 3 481
41 4 188
41 5 629
41 6 42
41 7 277
41 8 867
41 9 367
41 10 51
41 11 60
41 12 54
41 13 357
41 14 228
41 15 113
41 16 957
41 17 667
41 18 619
41 19 523
41 20 501
41 21 781
41 22 955
41 23 319
41 24 739
41 25 28
41 26 731
41 27 764
41 28 922
41 29 76
41 30 876
41 31 164
41 32 665
41 33 976
41 34 590
41 35 844
41 36 913
41 37 533
41 38 170
41 39 161
41 40 631
42 1 988
42 2 866
42 3 677
42 4 425
42 5 285
42 6 123
42 7 880
42 8 522
42 9 400
42 10 731
42 11 76
42 12 818
42 13 517
42 14 741
42 15 338
42 16 909
42 17 31
42 18 177
42 19 634
42 20 329
42 21 643
42 22 893
42 23 510
42 24 406
42 25 44
42 26 115
42 27 970
42 28 448
42 29 956
42 30 498
42 31 418
42 32 192
42 33 512
42 34 767
42 35 802
42 36 705
42 37 252
42 38 243
42 39 329
42 40 191
42 41 220
43 1 839
43 2 386
43 3 371
43 4 928
43 5 331
43 6 547
43 7 410
43 8 185
43 9 974
43 10 790
43 11 557
43 12 48
43 13 775
43 14 305
43 15 943
43 16 396
43 17 1000
43 18 525
43 19 242
43 20 886
43 21 717
43 22 250
43 23 124
43 24 284
43 25 456
43 26 13
43 27 692
43 28 441
43 29 289
43 30 31
43 31 354
43 32 405
43 33 908
43 34 414
43 35 805
43 36 423
43 37 506
43 38 478
43 39 80
43 40 852
43 41 543
43 42 296
44 1 854
44 2 211
44 3 693
44 4 888
44 5 434
44 6 893
44 7 558
44 8 647
44 9 145
44 10 288
44 11 952
44 12 902
44 13 34
44 14 319
44 15 827
44 16 743
44 17 92
44 18 644
44 19 158
44 20 478
44 21 445
44 22 29
44 23 352
44 24 361
44 25 187
44 26 653
44 27 995
44 28 468
44 29 804
44 30 330
44 31 9
44 32 839
44 33 393
44 34 926
44 35 526
44 36 288
44 37 94
44 38 458
44 39 65
44 40 481
44 41 445
44 42 631
44 43 796
45 1 188
45 2 593
45 3 828
45 4 994
45 5 815
45 6 554
45 7 788
45 8 971
45 9 617
45 10 969
45 11 501
45 12 67
45 13 197
45 14 30
45 15 41
45 16 514
45 17 191
45 18 546
45 19 378
45 20 235
45 21 258
45 22 309
45 23 393
45 24 897
45 25 751
45 26 226
45 27 613
45 28 792
45 29 706
45 30 894
45 31 424
45 32 343
45 33 23
45 34 568
45 35 751
45 36 327
45 37 969
45 38 704
45 39 476
45 40 107
45 41 380
45 42 532
45 43 87
45 44 458
46 1 193
46 2 334
46 3 312
46 4 792
46 5 190
46 6 383
46 7 750
46 8 854
46 9 77
46 10 725
46 11 744
46 12 201
46 13 276
46 14 250
46 15 6
46 16 38
46 17 68
46 18 743
46 19 743
46 20 218
46 21 959
46 22 852
46 23 289
46 24 480
46 25 395
46 26 171
46 27 509
46 28 236
46 29 213
46 30 878
46 31 449
46 32 475
46 33 452
46 34 609
46 35 27
46 36 607
46 37 405
46 38 532
46 39 726
46 40 299
46 41 34
46 42 784
46 43 583
46 44 636
46 45 142
47 1 737
47 2 945
47 3 159
47 4 912
47 5 770
47 6 764
47 7 607
47 8 709
47 9 495
47 10 436
47 11 423
47 12 263
47 13 621
47 14 421
47 15 345
47 16 612
47 17 912
47 18 174
47 19 639
47 20 444
47 21 911
47 22 112
47 23 811
47 24 707
47 25 385
47 26 644
47 27 834
47 28 616
47 29 683
47 30 511
47 31 237
47 32 443
47 33 439
47 34 926
47 35 601
47 36 712
47 37 316
47 38 298
47 39 289
47 40 685
47 41 737
47 42 505
47 43 473
47 44 256
47 45 789
47 46 13
48 1 773
48 2 650
48 3 741
48 4 302
48 5 79
48 6 531
48 7 870
48 8 390
48 9 369
48 10 429
48 11 537
48 12 430
48 13 587
48 14 585
48 15 703
48 16 657
48 17 906
48 18 615
48 19 321
48 20 169
48 21 931
48 22 602
48 23 310
48 24 313
48 25 669
48 26 523
48 27 38
48 28 667
48 29 325
48 30 102
48 31 508
48 32 878
48 33 242
48 34 510
48 35 696
48 36 863
48 37 557
48 38 501
48 39 725
48 40 113
48 41 383
48 42 895
48 43 821
48 44 129
48 45 579
48 46 515
48 47 237
49 1 213
49 2 443
49 3 971
49 4 590
49 5 144
49 6 868
49 7 910
49 8 307
49 9 476
49 10 808
49 11 619
49 12 110
49 13 476
49 14 84
49 15 102
49 16 742
49 17 939
49 18 887
49 19 18
49 20 369
49 21 401
49 22 506
49 23 103
49 24 352
49 25 492
49 26 129
49 27 956
49 28 335
49 29 438
49 30 758
49 31 318
49 32 826
49 33 964
49 34 575
49 35 231
49 36 730
49 37 106
49 38 314
49 39 685
49 40 513
49 41 676
49 42 451
49 43 658
49 44 947
49 45 403
49 46 297
49 47 662
49 48 617
50 1 974
50 2 288
50 3 170
50 4 642
50 5 514
50 6 55
50 7 572
50 8 298
50 9 229
50 10 83
50 11 515
50 12 478
50 13 236
50 14 25
50 15 780
50 16 190
50 17 817
50 18 993
50 19 52
50 20 531
50 21 624
50 22 384
50 23 231
50 24 822
50 25 560
50 26 66
50 27 148
50 28 857
50 29 366
50 30 983
50 31 829
50 32 451
50 33 152
50 34 502
50 35 668
50 36 720
50 37 377
50 38 65
50 39 163
50 40 808
50 41 48
50 42 958
50 43 64
50 44 975
50 45 114
50 46 274
50 47 87
50 48 254
50 49 334
51 1 378
51 2 561
51 3 119
51 4 115
51 5 441
51 6 639
51 7 841
51 8 62
51 9 866
51 10 947
51 11 494
51 12 266
51 13 662
51 14 814
51 15 786
51 16 562
51 17 92
51 18 447
51 19 160
51 20 280
51 21 157
51 22 684
51 23 862
51 24 226
51 25 730
51 26 211
51 27 915
51 28 909
51 29 414
51 30 361
51 31 186
51 32 264
51 33 433
51 34 886
51 35 989
51 36 372
51 37 124
51 38 315
51 39 927
51 40 935
51 41 849
51 42 795
51 43 889
51 44 508
51 45 393
51 46 531
51 47 422
51 48 745
51 49 161
51 50 208
52 1 904
52 2 153
52 3 744
52 4 24
52 5 201
52 6 124
52 7 671
52 8 213
52 9 779
52 10 235
52 11 406
52 12 190
52 13 422
52 14 73
52 15 917
52 16 685
52 17 39
52 18 98
52 19 379
52 20 515
52 21 215
52 22 282
52 23 821
52 24 850
52 25 478
52 26 545
52 27 797
52 28 125
52 29 443
52 30 225
52 31 380
52 32 952
52 33 308
52 34 102
52 35 66
52 36 687
52 37 362
52 38 720
52 39 383
52 40 510
52 41 469
52 42 10
52 43 292
52 44 157
52 45 703
52 46 475
52 47 673
52 48 681
52 49 593
52 50 434
52 51 492
53 1 873
53 2 651
53 3 88
53 4 435
53 5 214
53 6 139
53 7 397
53 8 94
53 9 500
53 10 252
53 11 39
53 12 23
53 13 505
53 14 178
53 15 939
53 16 214
53 17 321
53 18 707
53 19 139
53 20 826
53 21 250
53 22 343
53 23 994
53 24 227
53 25 373
53 26 101
53 27 964
53 28 663
53 29 190
53 30 441
53 31 494
53 32 122
53 33 935
53 34 22
53 35 750
53 36 215
53 37 466
53 38 219
53 39 193
53 40 133
53 41 858
53 42 600
53 43 271
53 44 995
53 45 57
53 46 794
53 47 712
53 48 167
53 49 252
53 50 455
53 51 184
53 52 349
54 1 825
54 2 247
54 3 315
54 4 512
54 5 11
54 6 56
54 7 346
54 8 994
54 9 655
54 10 867
54 11 895
54 12 326
54 13 687
54 14 986
54 15 609
54 16 594
54 17 195
54 18 567
54 19 694
54 20 421
54 21 222
54 22 620
54 23 581
54 24 866
54 25 686
54 26 950
54 27 238
54 28 823
54 29 12
54 30 714
54 31 866
54 32 723
54 33 401
54 34 541
54 35 1
54 36 619
54 37 830
54 38 402
54 39 269
54 40 955
54 41 174
54 42 678
54 43 286
54 44 597
54 45 92
54 46 107
54 47 482
54 48 941
54 49 526
54 50 565
54 51 829
54 52 159
54 53 974
55 1 856
55 2 738
55 3 900
55 4 893
55 5 976
55 6 632
55 7 26
55 8 872
55 9 509
55 10 939
55 11 173
55 12 451
55 13 134
55 14 514
55 15 232
55 16 713
55 17 400
55 18 753
55 19 44
55 20 35
55 21 239
55 22 881
55 23 892
55 24 613
55 25 884
55 26 191
55 27 593
55 28 659
55 29 157
55 30 224
55 31 266
55 32 381
55 33 296
55 34 149
55 35 88
55 36 134
55 37 776
55 38 842
55 39 603
55 40 374
55 41 820
55 42 428
55 43 407
55 44 281
55 45 516
55 46 279
55 47 268
55 48 197
55 49 771
55 50 725
55 51 1
55 52 242
55 53 500
55 54 991
56 1 663
56 2 751
56 3 780
56 4 96
56 5 886
56 6 394
56 7 885
56 8 735
56 9 419
56 10 129
56 11 399
56 12 390
56 13 177
56 14 349
56 15 859
56 16 174
56 17 390
56 18 860
56 19 605
56 20 162
56 21 648
56 22 567
56 23 788
56 24 214
56 25 917
56 26 1
56 27 724
56 28 548
56 29 839
56 30 55
56 31 32
56 32 557
56 33 888
56 34 574
56 35 259
56 36 628
56 37 188
56 38 664
56 39 917
56 40 979
56 41 76
56 42 855
56 43 134
56 44 743
56 45 703
56 46 494
56 47 365
56 48 832
56 49 266
56 50 6
56 51 837
56 52 303
56 53 665
56 54 885
56 55 691
57 1 265
57 2 666
57 3 560
57 4 990
57 5 551
57 6 876
57 7 510
57 8 56
57 9 673
57 10 105
57 11 247
57 12 812
57 13 815
57 14 929
57 15 68
57 16 76
57 17 861
57 18 512
57 19 675
57 20 2
57 21 720
57 22 22
57 23 73
57 24 100
57 25 439
57 26 184
57 27 351
57 28 535
57 29 880
57 30 806
57 31 238
57 32 642
57 33 935
57 34 336
57 35 556
57 36 853
57 37 562
57 38 764
57 39 959
57 40 473
57 41 128
57 42 442
57 43 567
57 44 989
57 45 818
57 46 631
57 47 400
57 48 878
57 49 114
57 50 852
57 51 720
57 52 77
57 53 596
57 54 343
57 55 668
57 56 570
58 1 580
58 2 203
58 3 829
58 4 789
58 5 320
58 6 27
58 7 592
58 8 760
58 9 814
58 10 110
58 11 450
58 12 181
58 13 439
58 14 524
58 15 599
58 16 896
58 17 931
58 18 644
58 19 488
58 20 434
58 21 461
58 22 942
58 23 181
58 24 557
58 25 820
58 26 95
58 27 661
58 28 26
58 29 946
58 30 754
58 31 472
58 32 5
58 33 320
58 34 517
58 35 301
58 36 802
58 37 975
58 38 925
58 39 408
58 40 902
58 41 113
58 42 565
58 43 9
58 44 453
58 45 602
58 46 572
58 47 1000
58 48 684
58 49 842
58 50 112
58 51 660
58 52 911
58 53 762
58 54 665
58 55 191
58 56 99
58 57 950
59 1 152
59 2 248
59 3 153
59 4 166
59 5 260
59 6 817
59 7 397
59 8 748
59 9 487
59 10 85
59 11 911
59 12 660
59 13 767
59 14 168
59 15 691
59 16 194
59 17 704
59 18 844
59 19 799
59 20 561
59 21 756
59 22 642
59 23 969
59 24 905
59 25 929
59 26 953
59 27 341
59 28 462
59 29 790
59 30 999
59 31 272
59 32 890
59 33 877
59 34 833
59 35 419
59 36 15
59 37 808
59 38 710
59 39 528
59 40 498
59 41 676
59 42 487
59 43 624
59 44 180
59 45 525
59 46 910
59 47 549
59 48 100
59 49 985
59 50 934
59 51 23
59 52 453
59 53 383
59 54 441
59 55 690
59 56 982
59 57 890
59 58 992
60 1 827
60 2 562
60 3 527
60 4 495
60 5 659
60 6 974
60 7 91
60 8 907
60 9 479
60 10 138
60 11 322
60 12 361
60 13 1
60 14 288
60 15 873
60 16 336
60 17 650
60 18 860
60 19 902
60 20 759
60 21 728
60 22 88
60 23 355
60 24 165
60 25 639
60 26 566
60 27 252
60 28 281
60 29 623
60 30 278
60 31 538
60 32 689
60 33 689
60 34 847
60 35 333
60 36 421
60 37 689
60 38 15
60 39 625
60 40 631
60 41 714
60 42 602
60 43 736
60 44 714
60 45 273
60 46 446
60 47 131
60 48 509
60 49 929
60 50 80
60 51 369
60 52 458
60 53 341
60 54 160
60 55 282
60 56 853
60 57 901
60 58 877
60 59 686
61 1 550
61 2 413
61 3 876
61 4 194
61 5 773
61 6 497
61 7 423
61 8 948
61 9 904
61 10 665
61 11 837
61 12 338
61 13 363
61 14 258
61 15 426
61 16 18
61 17 979
61 18 685
61 19 443
61 20 793
61 21 467
61 22 665
61 23 805
61 24 191
61 25 898
61 26 390
61 27 595
61 28 780
61 29 284
61 30 832
61 31 580
61 32 561
61 33 665
61 34 605
61 35 268
61 36 984
61 37 319
61 38 98
61 39 245
61 40 423
61 41 982
61 42 801
61 43 804
61 44 161
61 45 193
61 46 33
61 47 110
61 48 210
61 49 165
61 50 495
61 51 425
61 52 530
61 53 786
61 54 356
61 55 114
61 56 463
61 57 650
61 58 806
61 59 477
61 60 449
62 1 235
62 2 260
62 3 616
62 4 339
62 5 607
62 6 675
62 7 888
62 8 876
62 9 285
62 10 648
62 11 652
62 12 152
62 13 143
62 14 247
62 15 354
62 16 118
62 17 475
62 18 779
62 19 170
62 20 453
62 21 608
62 22 904
62 23 743
62 24 364
62 25 684
62 26 827
62 27 736
62 28 138
62 29 498
62 30 469
62 31 229
62 32 498
62 33 516
62 34 845
62 35 208
62 36 99
62 37 451
62 38 63
62 39 638
62 40 707
62 41 35
62 42 646
62 43 893
62 44 905
62 45 848
62 46 126
62 47 529
62 48 364
62 49 354
62 50 84
62 51 668
62 52 20
62 53 506
62 54 96
62 55 487
62 56 705
62 57 559
62 58 258
62 59 574
62 60 58
62 61 968
63 1 249
63 2 144
63 3 784
63 4 493
63 5 113
63 6 387
63 7 567
63 8 900
63 9 199
63 10 425
63 11 217
63 12 880
63 13 964
63 14 661
63 15 855
63 16 71
63 17 560
63 18 507
63 19 212
63 20 301
63 21 419
63 22 740
63 23 350
63 24 445
63 25 260
63 26 12
63 27 380
63 28 514
63 29 218
63 30 243
63 31 988
63 32 860
63 33 31
63 34 918
63 35 835
63 36 624
63 37 484
63 38 530
63 39 149
63 40 809
63 41 543
63 42 688
63 43 79
63 44 601
63 45 876
63 46 626
63 47 616
63 48 822
63 49 705
63 50 130
63 51 167
63 52 643
63 53 163
63 54 132
63 55 74
63 56 937
63 57 629
63 58 475
63 59 665
63 60 892
63 61 697
63 62 601
64 1 646
64 2 778
64 3 750
64 4 175
64 5 890
64 6 988
64 7 307
64 8 885
64 9 963
64 10 725
64 11 606
64 12 932
64 13 929
64 14 983
64 15 94
64 16 962
64 17 267
64 18 682
64 19 781
64 20 441
64 21 955
64 22 94
64 23 641
64 24 730
64 25 50
64 26 945
64 27 505
64 28 361
64 29 317
64 30 805
64 31 134
64 32 274
64 33 732
64 34 665
64 35 418
64 36 6
64 37 923
64 38 817
64 39 889
64 40 106
64 41 866
64 42 413
64 43 990
64 44 259
64 45 402
64 46 350
64 47 793
64 48 883
64 49 389
64 50 336
64 51 104
64 52 211
64 53 558
64 54 287
64 55 151
64 56 89
64 57 396
64 58 418
64 59 296
64 60 20
64 61 603
64 62 667
64 63 451
65 1 193
65 2 963
65 3 330
65 4 161
65 5 495
65 6 677
65 7 27
65 8 528
65 9 783
65 10 490
65 11 389
65 12 415
65 13 896
65 14 156
65 15 90
65 16 648
65 17 171
65 18 91
65 19 102
65 20 115
65 21 469
65 22 241
65 23 304
65 24 997
65 25 965
65 26 515
65 27 821
65 28 541
65 29 193
65 30 333
65 31 726
65 32 82
65 33 123
65 34 101
65 35 981
65 36 246
65 37 252
65 38 698
65 39 749
65 40 540
65 41 973
65 42 269
65 43 449
65 44 751
65 45 731
65 46 910
65 47 190
65 48 861
65 49 707
65 50 47
65 51 462
65 52 413
65 53 40
65 54 584
65 55 209
65 56 518
65 57 849
65 58 132
65 59 667
65 60 948
65 61 546
65 62 891
65 63 591
65 64 6
66 1 197
66 2 988
66 3 757
66 4 112
66 5 944
66 6 361
66 7 862
66 8 297
66 9 732
66 10 476
66 11 204
66 12 48
66 13 842
66 14 471
66 15 766
66 16 197
66 17 4
66 18 523
66 19 593
66 20 788
66 21 67
66 22 516
66 23 577
66 24 123
66 25 495
66 26 323
66 27 47
66 28 419
66 29 200
66 30 265
66 31 768
66 32 779
66 33 442
66 34 572
66 35 258
66 36 404
66 37 829
66 38 904
66 39 522
66 40 251
66 41 644
66 42 248
66 43 610
66 44 569
66 45 27
66 46 767
66 47 597
66 48 10
66 49 740
66 50 410
66 51 900
66 52 249
66 53 550
66 54 344
66 55 28
66 56 319
66 57 453
66 58 544
66 59 161
66 60 86
66 61 263
66 62 80
66 63 189
66 64 562
66 65 315
67 1 944
67 2 76
67 3 3
67 4 281
67 5 461
67 6 695
67 7 973
67 8 358
67 9 621
67 10 495
67 11 823
67 12 336
67 13 879
67 14 651
67 15 276
67 16 284
67 17 253
67 18 548
67 19 54
67 20 875
67 21 784
67 22 755
67 23 744
67 24 600
67 25 668
67 26 853
67 27 339
67 28 363
67 29 630
67 30 744
67 31 157
67 32 232
67 33 364
67 34 329
67 35 57
67 36 326
67 37 90
67 38 684
67 39 176
67 40 112
67 41 560
67 42 98
67 43 590
67 44 606
67 45 68
67 46 620
67 47 628
67 48 231
67 49 287
67 50 988
67 51 749
67 52 342
67 53 995
67 54 59
67 55 197
67 56 669
67 57 12
67 58 137
67 59 860
67 60 175
67 61 906
67 62 810
67 63 31
67 64 101
67 65 296
67 66 189
68 1 12
68 2 175
68 3 805
68 4 669
68 5 752
68 6 269
68 7 990
68 8 593
68 9 959
68 10 985
68 11 813
68 12 453
68 13 380
68 14 932
68 15 463
68 16 495
68 17 189
68 18 700
68 19 605
68 20 877
68 21 671
68 22 784
68 23 367
68 24 731
68 25 652
68 26 956
68 27 629
68 28 786
68 29 357
68 30 849
68 31 438
68 32 414
68 33 644
68 34 748
68 35 608
68 36 229
68 37 802
68 38 846
68 39 829
68 40 625
68 41 355
68 42 470
68 43 837
68 44 880
68 45 567
68 46 27
68 47 482
68 48 695
68 49 578
68 50 678
68 51 748
68 52 314
68 53 382
68 54 990
68 55 34
68 56 588
68 57 71
68 58 74
68 59 281
68 60 622
68 61 36
68 62 960
68 63 752
68 64 880
68 65 90
68 66 213
68 67 523
69 1 878
69 2 667
69 3 46
69 4 17
69 5 839
69 6 574
69 7 434
69 8 140
69 9 952
69 10 967
69 11 974
69 12 828
69 13 98
69 14 494
69 15 514
69 16 92
69 17 177
69 18 803
69 19 782
69 20 851
69 21 428
69 22 856
69 23 540
69 24 139
69 25 350
69 26 735
69 27 999
69 28 499
69 29 113
69 30 878
69 31 512
69 32 621
69 33 595
69 34 957
69 35 792
69 36 550
69 37 411
69 38 809
69 39 160
69 40 30
69 41 567
69 42 141
69 43 582
69 44 794
69 45 626
69 46 923
69 47 488
69 48 872
69 49 501
69 50 691
69 51 640
69 52 227
69 53 269
69 54 166
69 55 541
69 56 302
69 57 616
69 58 913
69 59 151
69 60 265
69 61 818
69 62 962
69 63 897
69 64 54
69 65 359
69 66 587
69 67 251
69 68 506
70 1 582
70 2 687
70 3 370
70 4 155
70 5 2
70 6 457
70 7 539
70 8 518
70 9 151
70 10 293
70 11 452
70 12 917
70 13 87
70 14 124
70 15 555
70 16 172
70 17 954
70 18 601
70 19 969
70 20 722
70 21 211
70 22 856
70 23 744
70 24 997
70 25 412
70 26 747
70 27 454
70 28 91
70 29 671
70 30 803
70 31 375
70 32 83
70 33 185
70 34 294
70 35 757
70 36 534
70 37 445
70 38 125
70 39 948
70 40 13
70 41 18
70 42 499
70 43 365
70 44 688
70 45 25
70 46 527
70 47 568
70 48 327
70 49 691
70 50 244
70 51 950
70 52 242
70 53 603
70 54 708
70 55 786
70 56 30
70 57 555
70 58 128
70 59 642
70 60 142
70 61 97
70 62 219
70 63 422
70 64 626
70 65 180
70 66 213
70 67 518
70 68 587
70 69 525
71 1 230
71 2 856
71 3 195
71 4 584
71 5 938
71 6 817
71 7 305
71 8 233
71 9 706
71 10 292
71 11 998
71 12 575
71 13 685
71 14 383
71 15 619
71 16 467
71 17 499
71 18 494
71 19 122
71 20 681
71 21 514
71 22 821
71 23 792
71 24 789
71 25 841
71 26 496
71 27 659
71 28 183
71 29 551
71 30 882
71 31 167
71 32 846
71 33 757
71 34 784
71 35 921
71 36 743
71 37 540
71 38 568
71 39 577
71 40 985
71 41 880
71 42 452
71 43 185
71 44 125
71 45 54
71 46 463
71 47 559
71 48 217
71 49 181
71 50 827
71 51 484
71 52 528
71 53 863
71 54 782
71 55 835
71 56 23
71 57 106
71 58 73
71 59 917
71 60 1000
71 61 970
71 62 644
71 63 592
71 64 515
71 65 630
71 66 259
71 67 13
71 68 460
71 69 801
71 70 75
72 1 38
72 2 441
72 3 709
72 4 409
72 5 616
72 6 815
72 7 54
72 8 217
72 9 749
72 10 536
72 11 654
72 12 16
72 13 809
72 14 672
72 15 713
72 16 278
72 17 300
72 18 727
72 19 908
72 20 535
72 21 376
72 22 154
72 23 721
72 24 696
72 25 675
72 26 676
72 27 737
72 28 348
72 29 296
72 30 305
72 31 810
72 32 22
72 33 973
72 34 179
72 35 328
72 36 697
72 37 775
72 38 602
72 39 991
72 40 32
72 41 889
72 42 911
72 43 802
72 44 93
72 45 308
72 46 56
72 47 215
72 48 561
72 49 488
72 50 14
72 51 629
72 52 699
72 53 285
72 54 419
72 55 674
72 56 556
72 57 758
72 58 38
72 59 963
72 60 184
72 61 622
72 62 978
72 63 282
72 64 856
72 65 453
72 66 729
72 67 378
72 68 549
72 69 933
72 70 460
72 71 806
73 1 191
73 2 717
73 3 159
73 4 522
73 5 426
73 6 737
73 7 523
73 8 158
73 9 905
73 10 997
73 11 711
73 12 176
73 13 349
73 14 199
73 15 351
73 16 346
73 17 902
73 18 738
73 19 411
73 20 224
73 21 503
73 22 908
73 23 844
73 24 593
73 25 315
73 26 365
73 27 100
73 28 36
73 29 435
73 30 183
73 31 910
73 32 104
73 33 400
73 34 49
73 35 961
73 36 755
73 37 250
73 38 428
73 39 344
73 40 7
73 41 142
73 42 761
73 43 894
73 44 5
73 45 770
73 46 7
73 47 819
73 48 939
73 49 99
73 50 104
73 51 232
73 52 495
73 53 169
73 54 162
73 55 467
73 56 804
73 57 959
73 58 443
73 59 314
73 60 46
73 61 585
73 62 470
73 63 552
73 64 188
73 65 319
73 66 804
73 67 395
73 68 518
73 69 195
73 70 325
73 71 753
73 72 932
74 1 194
74 2 72
74 3 413
74 4 157
74 5 273
74 6 963
74 7 538
74 8 364
74 9 739
74 10 965
74 11 100
74 12 843
74 13 712
74 14 519
74 15 134
74 16 699
74 17 702
74 18 300
74 19 937
74 20 753
74 21 527
74 22 619
74 23 596
74 24 88
74 25 99
74 26 38
74 27 464
74 28 935
74 29 821
74 30 11
74 31 478
74 32 837
74 33 601
74 34 620
74 35 432
74 36 288
74 37 734
74 38 724
74 39 596
74 40 280
74 41 160
74 42 81
74 43 305
74 44 457
74 45 855
74 46 268
74 47 392
74 48 814
74 49 345
74 50 458
74 51 609
74 52 133
74 53 615
74 54 371
74 55 393
74 56 595
74 57 904
74 58 975
74 59 628
74 60 268
74 61 146
74 62 740
74 63 268
74 64 396
74 65 55
74 66 518
74 67 951
74 68 699
74 69 118
74 70 371
74 71 989
74 72 116
74 73 989
